; benchmark generated from python API
(set-info :status unknown)
(declare-fun A_1 () Real)
(declare-fun B () Real)
(declare-fun S_2 () Real)
(declare-fun S_3 () Real)
(declare-fun A_3 () Real)
(declare-fun A_2 () Real)
(declare-fun A_4 () Real)
(declare-fun A_0 () Real)
(declare-fun S_1 () Real)
(declare-fun S_4 () Real)
(declare-fun L_0 () Real)
(declare-fun S_0 () Real)
(assert
 (let (($x21339 (<= (+ (* (- 1.0) A_3) S_3 (* (- 1.0) S_2) (* (- 1.0) B) A_1) 0.0)))
 (let (($x2032 (<= (+ (* (- 1.0) A_3) S_3 (* (- 1.0) S_1) (* (- 1.0) B) A_0) 0.0)))
 (let (($x4903 (<= (+ S_4 (* (- 1.0) A_4) (* (- 1.0) S_2) (* (- 1.0) B) A_1) 0.0)))
 (let (($x4171 (<= (+ S_4 (* (- 1.0) A_4) (* (- 1.0) S_3) (* (- 1.0) B) A_2) 0.0)))
 (let (($x2136 (<= (+ (* (- 1.0) A_2) A_0 S_2 (* (- 1.0) S_1) (* (- 1.0) B)) 0.0)))
 (let (($x1640 (<= (+ S_4 (* (- 1.0) A_4) (* (- 1.0) S_1) (* (- 1.0) B) A_0) 0.0)))
 (let (($x1384 (>= B 0.0)))
 (let (($x7017 (= B 0.0)))
 (let (($x5150 (<= (+ A_1 S_4 (* (- 1.0) S_3) (* (- 1.0) A_3)) 0.0)))
 (let (($x1861 (<= (+ A_2 (* (- 1.0) S_3) (* (- 1.0) A_1) S_1) 0.0)))
 (let ((?x1342 (* (- 1.0) S_2)))
 (let ((?x1341 (* (- (/ 3.0 4.0)) L_0)))
 (let ((?x1340 (* (/ 3.0 4.0) A_0)))
 (let ((?x1339 (* (/ 1.0 4.0) S_4)))
 (let (($x1344 (<= (+ ?x1339 ?x1340 ?x1341 ?x1342) 0.0)))
 (let (($x36668 (<= (+ (* (- (/ 1.0 2.0)) A_2) (* (/ 1.0 2.0) S_4) A_0 ?x1342 (* (- (/ 1.0 2.0)) L_0)) 0.0)))
 (let (($x2008 (<= (+ (* (- 1.0) A_3) S_3 A_1 ?x1342) 0.0)))
 (let ((?x818 (* (- 1.0) B)))
 (let ((?x1354 (* (- 1.0) S_1)))
 (let ((?x2158 (* (- 2.0) L_0)))
 (let ((?x2157 (* (- 2.0) S_2)))
 (let ((?x2149 (* 3.0 A_0)))
 (let ((?x931 (* (- 1.0) A_2)))
 (let (($x5516 (<= (+ ?x931 S_4 ?x2149 ?x2157 ?x2158 ?x1354 ?x818) 0.0)))
 (let (($x44776 (<= (+ ?x931 S_3 (* 2.0 A_0) ?x1342 (* (- 1.0) L_0) ?x1354 ?x818) 0.0)))
 (let (($x4705 (<= (+ A_2 S_4 (* (- 1.0) A_4) (* (- 1.0) S_3)) 0.0)))
 (let ((?x3092 (* (- (/ 2.0 3.0)) A_1)))
 (let ((?x3036 (* (/ 2.0 3.0) B)))
 (let ((?x6058 (* (- (/ 2.0 3.0)) L_0)))
 (let ((?x3095 (* (/ 2.0 3.0) A_0)))
 (let ((?x1254 (* (- 1.0) S_3)))
 (let ((?x3065 (* (/ 1.0 3.0) S_4)))
 (let ((?x5936 (* (/ 2.0 3.0) A_2)))
 (let (($x6796 (<= (+ (* (- (/ 1.0 2.0)) A_0) (* (- (/ 1.0 2.0)) S_3) (* (- (/ 1.0 2.0)) L_0) ?x818 A_1) 0.0)))
 (let (($x3706 (<= (+ A_2 ?x1254 S_0 B (* (- 1.0) A_0)) 0.0)))
 (let (($x3393 (<= (+ A_2 ?x1254 (* (- 1.0) L_0)) 0.0)))
 (let ((?x3082 (* (- (/ 2.0 3.0)) A_0)))
 (let (($x3084 (<= (+ (* (/ 2.0 3.0) A_1) ?x3065 ?x1254 (* (/ 2.0 3.0) S_0) ?x3036 ?x3082) 0.0)))
 (let (($x923 (<= (+ (* (/ 1.0 2.0) S_4) (* (/ 1.0 2.0) A_0) (* (- (/ 1.0 2.0)) L_0) ?x1254) 0.0)))
 (let (($x199508 (or $x923 $x3084 $x3393 $x3706 $x6796 $x7017 (<= (+ ?x5936 ?x3065 ?x1254 ?x3095 ?x6058 ?x3036 ?x3092) 0.0))))
 (let (($x9212 (<= (+ (* (- 1.0) A_3) S_4 A_2 ?x1254 A_0 ?x1342 (* (- 1.0) L_0)) 0.0)))
 (let ((?x1347 (* (/ 1.0 2.0) L_0)))
 (let ((?x5675 (* (- (/ 1.0 2.0)) S_3)))
 (let ((?x1278 (* (/ 1.0 2.0) A_0)))
 (let ((?x894 (* (- 1.0) A_3)))
 (let (($x5689 (<= (+ ?x894 S_4 ?x1278 ?x5675 ?x1347) 0.0)))
 (let (($x2888 (<= (+ A_1 ?x1342 S_0 B (* (- 1.0) A_0)) 0.0)))
 (let (($x2536 (<= (+ A_1 ?x1342 (* (- 1.0) L_0)) 0.0)))
 (let ((?x1700 (* (- 2.0) A_1)))
 (let ((?x2156 (* 2.0 A_0)))
 (let ((?x3491 (* (- 3.0) S_3)))
 (let ((?x2638 (* 2.0 A_2)))
 (let (($x88547 (or $x923 $x3393 $x3706 $x5150 $x7017 (<= (+ S_4 ?x2638 ?x3491 ?x2156 ?x2158 ?x1700) 0.0))))
 (let ((?x1589 (* (- (/ 1.0 2.0)) A_1)))
 (let ((?x1346 (* (- (/ 1.0 2.0)) A_0)))
 (let ((?x1345 (* (- (/ 1.0 2.0)) S_4)))
 (let ((?x2538 (* (/ 1.0 2.0) A_2)))
 (let (($x34703 (<= (+ ?x2538 ?x1345 ?x1346 ?x1347 S_1 ?x1589) 0.0)))
 (let (($x19229 (<= (+ (* (- (/ 1.0 3.0)) S_4) ?x3082 (* (/ 2.0 3.0) L_0) S_1) 0.0)))
 (let ((?x806 (* (- 1.0) A_0)))
 (let ((?x1447 (* (- 1.0) S_4)))
 (let (($x7589 (<= (+ A_3 ?x1447 ?x806 L_0 (* 2.0 S_1) B ?x931) 0.0)))
 (let (($x1880 (<= (+ A_3 ?x1447 (* (- 1.0) A_1) S_1) 0.0)))
 (let (($x7284 (<= (+ ?x894 S_4 ?x2156 (* (- 1.0) L_0) ?x1342 ?x1354 ?x818) 0.0)))
 (let ((?x2555 (* (/ 1.0 2.0) B)))
 (let ((?x1261 (* (- (/ 1.0 2.0)) L_0)))
 (let ((?x1326 (* (/ 1.0 2.0) S_4)))
 (let ((?x2579 (* (- (/ 1.0 2.0)) A_3)))
 (let (($x35325 (<= (+ ?x2579 ?x1326 A_2 ?x1254 ?x1278 ?x1261 ?x2555 ?x1589) 0.0)))
 (let (($x5631 (<= (+ ?x894 S_4 (* (/ 3.0 2.0) A_0) ?x5675 ?x1261 ?x1354 ?x818) 0.0)))
 (let (($x5691 (<= (+ ?x894 S_4 ?x1254 ?x818 A_1) 0.0)))
 (let (($x1591 (<= (+ A_1 S_4 (* (- 1.0) A_4) ?x1342) 0.0)))
 (let (($x16756 (<= (+ ?x1589 ?x1345 S_2 ?x1347) 0.0)))
 (let (($x5934 (<= (+ A_3 (* (- 1.0) A_4)) 0.0)))
 (let (($x20667 (<= (+ A_3 ?x1447 A_2 A_0 (* (- 1.0) L_0) B ?x1700) 0.0)))
 (let (($x8385 (<= (+ A_3 ?x1447 S_2 B ?x931) 0.0)))
 (let (($x6626 (<= (+ A_3 ?x1447 (* (- 1.0) L_0)) 0.0)))
 (let (($x6416 (<= (+ A_3 ?x1447 ?x806 S_0 B) 0.0)))
 (let (($x2726 (<= (+ (* (- 1.0) A_1) ?x1447 (* 2.0 S_2) ?x1354 ?x818 A_0) 0.0)))
 (let (($x34643 (<= (+ ?x2538 ?x1326 (* (- (/ 1.0 2.0)) A_4) ?x1254 ?x1278 ?x1261 ?x1589 (* (/ 1.0 2.0) A_3)) 0.0)))
 (let ((?x6061 (* (/ 2.0 3.0) A_3)))
 (let ((?x3094 (* (- (/ 2.0 3.0)) B)))
 (let ((?x13299 (* (- (/ 2.0 3.0)) A_4)))
 (let ((?x6052 (* (- (/ 1.0 3.0)) L_0)))
 (let ((?x3089 (* (/ 1.0 3.0) A_0)))
 (let ((?x3114 (* (/ 2.0 3.0) S_4)))
 (let (($x33254 (<= (+ ?x3114 ?x3089 ?x6052 ?x13299 ?x1254 ?x3094 ?x6061) 0.0)))
 (let ((?x2592 (* (/ 1.0 2.0) A_3)))
 (let ((?x2916 (* (/ 1.0 2.0) S_0)))
 (let ((?x1636 (* (- (/ 1.0 2.0)) A_4)))
 (let ((?x1623 (* (/ 1.0 2.0) A_1)))
 (let (($x88092 (or $x3393 $x3706 $x7017 (<= (+ ?x1623 ?x1326 ?x1636 ?x1254 ?x1261 (* (- (/ 1.0 2.0)) B) ?x2592) 0.0) (<= (+ ?x1623 ?x1326 ?x1636 ?x1254 ?x2916 ?x1346 ?x2592) 0.0) $x33254 $x34643)))
 (let (($x87775 (or $x1861 $x7017 (<= (+ ?x1326 ?x1636 ?x1254 (* (/ 1.0 2.0) S_1) (* (- (/ 1.0 2.0)) B) ?x2592) 0.0))))
 (let (($x87757 (or $x3393 $x3706 $x5150 $x5689 $x7017 (<= (+ ?x2579 ?x1326 ?x1278 ?x1347 ?x2555 ?x1589) 0.0))))
 (let (($x5694 (<= (+ ?x894 S_4 ?x1278 (* (- (/ 3.0 2.0)) S_3) ?x1261 ?x818 A_2) 0.0)))
 (let ((?x2559 (* (- (/ 1.0 2.0)) B)))
 (let ((?x5649 (* (/ 1.0 2.0) S_3)))
 (let ((?x2566 (* (- (/ 1.0 2.0)) A_2)))
 (let (($x44443 (<= (+ ?x2566 ?x5649 ?x1278 ?x1342 ?x1261 ?x2559 ?x1623) 0.0)))
 (let ((?x778 (* (- 1.0) L_0)))
 (let ((?x936 (* (- 1.0) A_4)))
 (let (($x34907 (<= (+ S_4 ?x936 ?x1254 A_0 ?x1342 ?x778 ?x818 A_3) 0.0)))
 (let ((?x6055 (* (/ 1.0 3.0) A_2)))
 (let ((?x3088 (* (- (/ 1.0 3.0)) B)))
 (let ((?x5879 (* (- (/ 1.0 3.0)) A_3)))
 (let (($x6060 (<= (+ ?x5879 ?x3065 ?x3095 ?x6058 ?x1342 ?x3088 ?x6055) 0.0)))
 (let (($x198010 (or (not (<= (+ (* (- 2.0) S_4) (* 3.0 S_2) L_0 ?x806) 0.0)) $x6416 $x6626 $x7017 $x8385 $x16756)))
 (let ((?x2614 (* 2.0 B)))
 (let ((?x2394 (* (- 2.0) S_4)))
 (let ((?x2613 (* 2.0 A_3)))
 (let (($x2403 (<= (+ ?x2394 (* 3.0 S_2) L_0 ?x806) 0.0)))
 (let (($x197880 (or $x2403 $x6416 $x6626 $x7017 (<= (+ ?x2613 ?x2394 A_0 ?x778 S_2 ?x2614 ?x1700) 0.0) (<= (+ ?x1346 ?x1347 (* (/ 1.0 2.0) S_2) A_1 ?x931) 0.0))))
 (let (($x19053 (<= (+ A_3 ?x1447 S_1 B (* (- 1.0) A_1)) 0.0)))
 (let (($x197844 (or $x6416 $x6626 $x7017 (<= (+ ?x806 L_0 S_1 A_1 ?x931) 0.0) (<= (+ ?x1345 (* (/ 3.0 2.0) S_1) L_0 ?x806) 0.0) $x19053 (<= (+ ?x2538 ?x1345 ?x1346 ?x1347 S_1 ?x2555 ?x1589) 0.0) (<= (+ A_2 ?x1447 ?x806 S_1) 0.0) (<= (+ A_2 ?x1447 (* (- 2.0) A_0) L_0 S_1 S_0 B) 0.0))))
 (let (($x32498 (<= (+ ?x3065 ?x3095 ?x6058 (* (- (/ 1.0 3.0)) A_4) ?x1342 ?x3088 (* (/ 1.0 3.0) A_3)) 0.0)))
 (let (($x1661 (<= (+ A_1 ?x931) 0.0)))
 (let ((?x2504 (* (- 2.0) S_3)))
 (let ((?x1655 (* (- 2.0) A_4)))
 (let ((?x2408 (* 2.0 S_4)))
 (let (($x28552 (<= (+ ?x3065 (* (- (/ 1.0 3.0)) A_0) (* (/ 1.0 3.0) L_0) ?x936 ?x818 A_2) 0.0)))
 (let (($x12059 (<= (+ (* (- 1.0) A_1) S_4 ?x1655 ?x1354 (* (- 3.0) B) A_0 ?x2638) 0.0)))
 (let (($x2138 (<= (+ A_3 ?x1447 ?x931 S_2) 0.0)))
 (let (($x5685 (<= (+ ?x1346 ?x5675 ?x1347 S_1) 0.0)))
 (let (($x2001 (<= (+ ?x894 A_2) 0.0)))
 (let (($x85691 (or (<= (+ ?x2579 ?x1326 ?x1623 ?x1254 ?x1261 ?x2559 ?x2538) 0.0) $x3393 $x3706 $x5694 $x7017 (<= (+ ?x2579 ?x1326 ?x1623 ?x1254 ?x2916 ?x1346 ?x2538) 0.0) $x35325)))
 (let (($x192732 (or $x1861 $x7017 (<= (+ ?x2579 ?x1326 ?x1254 (* (/ 1.0 2.0) S_1) ?x2559 ?x2538) 0.0))))
 (let ((?x3241 (* (- 3.0) B)))
 (let ((?x2311 (* (- 2.0) A_0)))
 (let ((?x22800 (+ ?x2408 ?x2311 (* 2.0 L_0) (* (- 3.0) A_4) ?x3241 (* 3.0 A_1))))
 (let (($x193750 (or $x5934 (<= (+ ?x2538 ?x1326 ?x936 ?x1346 ?x1347 ?x2559 ?x1623) 0.0) (<= ?x22800 0.0))))
 (let (($x83801 (or $x3393 $x3706 (<= (+ A_2 ?x1254 S_1 B (* (- 1.0) A_1)) 0.0) $x5685 $x7017)))
 (let (($x83569 (or $x923 $x3084 $x3393 (<= (+ (* 2.0 A_1) S_4 ?x3491 ?x2158) 0.0) $x3706 $x7017 (<= (+ ?x1339 ?x1340 (* (/ 1.0 4.0) L_0) B (* (- 1.0) A_1)) 0.0))))
 (let (($x33786 (<= (+ ?x2566 ?x1326 ?x1636 ?x1278 ?x1342 ?x1261 ?x818 ?x1623 ?x2592) 0.0)))
 (let (($x41001 (<= (+ ?x931 S_4 ?x936 ?x2156 ?x1342 ?x778 ?x1354 (* (- 2.0) B) A_3) 0.0)))
 (let (($x15452 (<= (+ (* (- 1.0) A_1) S_4 ?x936 L_0 (* (- 2.0) B) ?x2638 ?x894) 0.0)))
 (let (($x10099 (<= (+ (* (- 1.0) A_1) S_4 ?x1655 L_0 (* (- 2.0) B) ?x2638) 0.0)))
 (let (($x7371 (<= (+ ?x894 S_4 A_0 ?x778 ?x2157 ?x818 A_1) 0.0)))
 (let (($x28190 (<= (+ ?x931 S_4 ?x936 A_0 ?x1342 ?x818 A_3) 0.0)))
 (let (($x29832 (<= (+ (* (- (/ 1.0 3.0)) A_2) ?x3065 ?x3095 ?x1342 ?x6058 ?x3088 (* (/ 1.0 3.0) A_1)) 0.0)))
 (let (($x5523 (<= (+ ?x931 S_4 ?x2156 (* (- 3.0) S_2) ?x2158 ?x818 A_1) 0.0)))
 (let (($x16992 (<= (+ ?x2579 ?x1278 ?x5649 ?x1261 ?x1342 ?x2559 ?x2538) 0.0)))
 (let (($x9134 (or $x923 $x4705 (<= (+ (* 2.0 A_1) (* 3.0 S_4) ?x1655 ?x3491) 0.0))))
 (let (($x7708 (<= (+ S_4 ?x936 A_0 ?x778 ?x2157 ?x818 A_2) 0.0)))
 (and (or $x1591 $x6060) (or $x1591 $x7708) (or $x1591 (<= (+ ?x894 S_4 A_0 ?x1342) 0.0)) (or $x2536 $x2888 $x7017 $x7708) (or $x1661 $x7371) (or $x1661 $x5523) (or $x1661 (<= (+ ?x931 S_4 ?x2156 ?x2157 ?x778) 0.0)) (or $x1661 (<= (+ ?x894 S_4 A_0 ?x1342) 0.0)) (or $x1661 $x7284) $x9134 (or $x1591 $x7284) (or $x1591 $x7371) (or $x1861 $x7017 (<= (+ ?x3065 ?x1254 (* (/ 2.0 3.0) S_1)) 0.0)) (or $x923 $x4705 $x5150) (or $x2138 $x2726 $x7017) (or $x2008 (<= (+ ?x3095 ?x6058 (* (/ 1.0 3.0) S_3) ?x1342) 0.0)) (or $x1591 (<= (+ ?x3095 ?x6058 (* (/ 1.0 3.0) S_3) ?x1342) 0.0)) (or $x2008 $x16992) (or $x2138 $x2403 $x7017) (or $x2403 $x5934) (or $x2536 $x2888 $x7017 $x16992) (or $x1880 $x2403 $x7017 $x8385) (or $x1344 $x1591) (or $x1861 $x5685 $x7017) (or $x4705 (<= (+ S_4 ?x936 ?x1346 ?x5675 ?x1347 ?x818 A_1) 0.0)) (or $x5934 $x19229 (<= (+ A_2 ?x936 ?x806 L_0 S_1) 0.0)) (or $x2536 $x2888 $x7017 $x32498) (or $x5934 (<= (+ S_4 ?x1655 ?x1342 (* (- 2.0) B) ?x2638) 0.0)) (or $x4705 $x5685) (or $x1880 $x7017 $x8385 $x16756) (or $x2138 $x7017 $x16756) (or $x2008 $x7371) (or $x1591 $x5523) (or $x2536 $x2888 $x7017 $x29832) (or $x2008 $x29832) (or $x2536 $x2888 $x7017 (<= (+ ?x3095 ?x6058 (* (/ 1.0 3.0) S_3) ?x1342) 0.0)) (or $x1344 $x2536 $x2888 $x7017) (or $x2536 $x2888 $x7017 $x28190) (or $x1591 $x28190) (or $x1591 (<= (+ ?x931 S_4 ?x2156 ?x2157 ?x778) 0.0)) (or $x2536 $x2888 $x7017 $x33786) (or $x2536 $x2888 $x7017 $x36668) (or $x2536 $x2888 $x7017 (<= (+ ?x894 S_4 A_0 ?x1342) 0.0)) (or $x2536 $x2888 $x5685 $x7017 $x9212) (or $x2536 $x2888 $x7017 $x7371) (or $x2536 $x2888 $x7017 $x41001) (or $x2001 (<= (+ ?x894 ?x1346 ?x5649 ?x1347 ?x818 A_1) 0.0)) (or $x2726 $x5934) (or $x10099 (not $x15452)) (or $x5934 $x15452) (or $x1661 (<= (+ ?x931 S_3 A_0 ?x2157 ?x778 ?x818 A_1) 0.0)) (or $x1661 $x41001) (or $x1591 $x33786) (or $x1591 $x41001) (or $x1661 $x28190) (or $x1661 $x33786) (or $x923 $x1661 $x9212) (or $x923 $x2536 $x2888 $x7017 $x9212) (or $x2008 $x5689 $x9212) (or $x2001 $x5150 (<= (+ ?x894 S_4 A_0 ?x1342) 0.0)) $x83569 (or $x1591 $x5516) (or $x1661 (<= (+ ?x931 S_3 A_0 ?x1342) 0.0)) (or $x2138 $x7017 (<= (+ ?x1447 ?x806 S_2 L_0 S_1) 0.0)) $x83801 $x193750 (or $x1591 (<= (+ ?x931 S_3 A_0 ?x1342) 0.0)) (or $x923 $x1591 $x9212) (or $x1591 (<= (+ S_4 ?x1254 ?x2156 ?x2157 ?x2158) 0.0)) (or $x1344 $x2008) (or $x2008 $x7284) $x192732 (or $x2536 $x2888 $x6060 $x7017) (or $x2536 $x2888 $x7017 $x7284) (or $x2008 $x6060) (or $x1591 $x44443) (or $x2001 $x5150 $x6060) (or $x1591 $x32498) (or $x1591 $x44776) (or $x1591 $x5685 $x9212) (or $x1861 $x5150 $x5694 $x7017) $x85691 (or $x2001 $x5150 $x5694) (or $x2001 $x5685) (or $x2008 $x5685 $x9212) (or $x2008 $x5691 $x9212) (or $x923 $x2001 $x5150) (or $x1861 $x5150 $x7017 (<= (+ ?x894 S_4 A_0 ?x1342) 0.0)) (or $x923 $x1861 $x5150 $x7017) (or $x2001 $x5150 $x5689) (or $x4705 $x5150 $x5689) (or $x1861 $x5150 $x5689 $x7017) (or $x3393 $x3706 $x5150 $x6060 $x7017) (or $x4705 $x5150 $x6060) (or $x2138 $x7017 (<= (+ ?x2566 ?x1345 ?x1346 S_2 ?x1347 ?x2559 ?x1623) 0.0)) (or $x4705 $x5150 $x5694) (or $x4705 $x5691) (or $x2008 (<= (+ ?x931 S_3 A_0 ?x1342) 0.0)) (or $x2008 (<= (+ ?x894 S_4 A_0 ?x1342) 0.0)) (or $x5934 $x12059) (or $x5934 $x28552) (or $x4705 (<= (+ A_1 ?x2408 ?x1655 ?x2504 ?x818 A_3) 0.0) $x33254) (or $x1661 (<= (+ ?x3095 ?x6058 (* (/ 1.0 3.0) S_3) ?x1342) 0.0)) (or $x2001 $x5150 $x5631) (or $x3393 $x3706 $x5150 $x7017 $x7284) (or $x1344 $x3393 $x3706 $x5150 $x7017) (or $x2001 $x5150 $x7284) (or $x1344 $x2001 $x5150) (or $x1880 $x2726 $x7017 $x8385) (or $x2403 $x6416 $x6626 $x7017 $x8385 $x20667) (or $x2536 $x2888 $x7017 $x34907) (or $x1661 $x34907) (or $x2536 $x2888 $x7017 (<= (+ ?x931 S_3 A_0 ?x1342) 0.0)) (or $x2536 $x2888 $x7017 $x44776) (or $x1661 $x44776) (or $x1661 (<= (+ S_4 ?x1254 ?x2156 ?x2157 ?x2158) 0.0)) (or $x1661 $x5516) (or $x1661 $x32498) (or $x2008 (<= (+ ?x931 S_3 A_0 ?x2157 ?x778 ?x818 A_1) 0.0)) $x197844 (or $x6416 $x6626 $x7017 $x7589 $x19053 $x19229 $x34703) $x197880 (or $x2536 $x2888 (<= (+ S_4 ?x1254 ?x2156 ?x2157 ?x2158) 0.0) $x7017) $x198010 (or $x1861 $x5150 $x6060 $x7017) (or $x2008 $x5631 $x9212) (or $x923 $x2008 $x9212) (or $x1591 $x34907) (or $x2536 $x2888 $x7017 $x44443) (or $x2001 $x5691) (or $x3393 $x3706 $x5691 $x7017 $x35325) (or $x3393 $x3706 $x5150 $x5694 $x7017 $x35325) $x87757 $x87775 $x88092 (or $x2536 $x2888 $x5516 $x7017) (or $x2726 $x6416 $x6626 $x7017 $x8385 $x20667) (or $x5934 $x16756) (or $x4705 $x5150 $x5631) (or $x1344 $x1661) (or $x1591 $x5691 $x9212) (or $x1591 $x5689 $x9212) (or $x1591 $x5631 $x9212) (or $x2536 $x2888 $x5691 $x7017 $x9212) (or $x2536 $x2888 $x5631 $x7017 $x9212) (or $x3393 $x3706 $x5150 $x5631 $x7017 $x35325) (or $x4705 $x5150 $x7284) (or $x3393 $x3706 $x5150 $x7017 (<= (+ ?x894 S_4 A_0 ?x1342) 0.0)) (or $x4705 $x5150 (<= (+ ?x894 S_4 A_0 ?x1342) 0.0)) (or $x1880 $x7017 $x7589 $x19229 $x34703) $x88547 (or $x2536 $x2888 $x5689 $x7017 $x9212) $x199508 (or $x1344 $x4705 $x5150) (or $x2008 $x44776) (or $x2008 $x5516) (or $x2008 $x36668) (or $x1344 $x1861 $x5150 $x7017) $x1384 (<= (+ ?x1354 S_0) 0.0) (<= (+ S_4 ?x936 L_0) 0.0) (<= (+ (* (- 1.0) A_1) S_1 L_0) 0.0) (<= (+ ?x894 S_3 L_0) 0.0) $x1640 (<= (+ ?x1447 S_3) 0.0) (<= (+ ?x1342 S_1) 0.0) (<= (+ (* (- 1.0) A_1) ?x818 A_0) 0.0) (<= (+ ?x931 S_2 L_0) 0.0) (<= (+ ?x1254 S_2) 0.0) $x2136 (<= (+ S_0 L_0 ?x806) 0.0) $x4171 $x4903 (<= (+ ?x931 ?x818 A_1) 0.0) $x2032 (<= (+ ?x936 ?x818 A_3) 0.0) (<= (+ ?x818 A_2 ?x894) 0.0) $x21339)))))))))))))))))))))))))))))))))))))))))))))))))))))))))))))))))))))))))))))))))))))))))))))))))))))))))))))))))))))))))))))))))))))))))))))))))
(check-sat)
